p cnf 12 50 
-5 -6 12 0
-8 -5 -10 0
-7 3 -4 0
1 -10 -12 0
9 4 -10 0
2 -1 -4 0
-12 5 7 0
10 -11 7 0
10 5 11 0
-12 11 -1 0
3 -11 7 0
8 9 -3 0
-10 -11 12 0
9 -10 5 0
-6 -8 2 0
1 6 -7 0
3 1 -4 0
-3 7 -8 0
8 -5 6 0
-8 4 11 0
-6 11 -8 0
-10 -6 12 0
10 6 -2 0
1 7 3 0
-3 -10 -12 0
9 -6 5 0
-6 2 -7 0
2 -1 7 0
11 8 6 0
-7 -9 -1 0
-5 -4 -7 0
9 -2 -5 0
11 -8 -9 0
11 4 -9 0
11 -7 1 0
-12 4 6 0
4 7 9 0
3 4 10 0
2 6 1 0
5 -3 1 0
-6 7 -3 0
-10 12 11 0
-2 7 -3 0
7 -10 -8 0
-6 2 -3 0
-9 12 3 0
5 -2 -3 0
12 -6 -7 0
11 8 2 0
-10 -11 12 0
